set nodos := 1 2 3 4 5;
param capacidad := 20;

param demanda :=
	1 2
	2 5
	3 1
	4 3
	5 1
;

param distancia :
	1 2 3 4 5 :=
	1 8 8 8 7 4
	2 2 8 1 7 7
	3 10 1 8 5 4
	4 10 2 6 1 1
	5 1 9 1 7 4
;
